NAME: eil101
TYPE: TOUR
DIMENSION: 101
TOUR_SECTION
1
69
27
101
53
58
40
21
73
72
74
22
41
75
56
23
39
67
4
13
94
6
89
95
97
92
59
99
96
5
84
17
60
83
8
45
82
48
47
36
49
7
88
31
70
30
20
66
62
10
90
32
63
11
19
64
46
18
52
37
98
100
85
93
91
44
14
38
61
16
86
87
57
2
15
43
42
28
50
76
77
3
79
78
34
33
81
9
51
71
35
65
29
24
68
80
12
26
54
55
25
EOF